(declare-fun e () String)
(declare-fun c () String)
(declare-fun g () String)
(declare-fun b () String)
(declare-fun d () String)
(declare-fun f () String)
(declare-fun a () String)
(declare-fun h () String)
(assert (= (str.++ "g" b e d "ed") (str.++ "c" e "g")))
(assert (= (str.++ f h "f" f "d" g) (str.++ "c" g)))
(assert (= "b" (str.++ c a "g")))

(check-sat)
